p cnf 50 1000 
1 14 -9 0
1 -10 32 0
1 39 -40 0
1 -22 -36 0
1 -30 -19 0
1 49 -2 0
1 -2 46 0
1 41 2 0
1 -10 32 0
1 -14 30 0
1 -19 -42 0
1 27 13 0
1 -31 -6 0
1 8 45 0
1 -40 -45 0
1 -46 4 0
1 -35 -30 0
1 9 -6 0
1 47 30 0
1 -42 37 0
1 43 -20 0
1 14 21 0
1 -16 41 0
1 44 -19 0
1 -49 43 0
1 -48 -27 0
1 7 -4 0
1 40 -48 0
1 -18 -23 0
1 -44 40 0
1 31 20 0
1 39 -38 0
1 -30 -29 0
1 6 29 0
1 33 40 0
1 38 31 0
1 -4 -35 0
1 24 22 0
1 -41 -26 0
1 13 -30 0
1 9 -20 0
1 41 -26 0
1 36 42 0
1 45 -22 0
1 8 -17 0
1 23 -7 0
1 34 48 0
1 13 4 0
1 24 36 0
1 -12 -28 0
1 19 12 0
1 -34 -33 0
1 50 43 0
1 50 -40 0
1 -37 -32 0
1 36 19 0
1 5 28 0
1 5 17 0
1 -29 27 0
1 10 27 0
1 -20 24 0
1 13 -2 0
1 -34 49 0
1 17 -27 0
1 -50 38 0
1 -1 -23 0
1 -9 -7 0
1 10 -46 0
1 -26 -23 0
1 25 44 0
1 -41 29 0
1 6 11 0
1 48 -1 0
1 -23 -16 0
1 23 -13 0
1 8 -20 0
1 42 9 0
1 -2 -21 0
1 50 28 0
1 38 -2 0
1 -2 32 0
1 48 10 0
1 22 -19 0
1 38 -16 0
1 -25 -23 0
1 43 -35 0
1 -12 -19 0
1 -21 8 0
1 -39 -20 0
1 30 49 0
1 -18 8 0
1 -23 -42 0
1 15 31 0
1 -15 -42 0
1 -11 -47 0
1 4 -11 0
1 -30 47 0
1 46 34 0
1 42 40 0
1 31 -2 0
1 32 -35 0
1 26 -2 0
1 48 17 0
1 -19 43 0
1 20 45 0
1 -4 -23 0
1 41 -10 0
1 21 19 0
1 21 -31 0
1 -17 -20 0
1 20 47 0
1 -34 -16 0
1 -26 -36 0
1 -31 -25 0
1 49 32 0
1 -6 -15 0
1 45 11 0
1 -30 -9 0
1 6 -45 0
1 10 -41 0
1 -26 48 0
1 -23 24 0
1 -6 7 0
1 -21 26 0
1 -36 7 0
1 15 21 0
1 15 24 0
1 14 -25 0
1 -23 -46 0
1 19 42 0
1 -48 3 0
1 -29 24 0
1 -30 -11 0
1 32 -43 0
1 17 -24 0
1 48 31 0
1 26 -16 0
1 8 30 0
1 33 5 0
1 -29 8 0
1 19 -6 0
1 -49 18 0
1 -41 -16 0
1 46 14 0
1 29 -24 0
1 -3 -36 0
1 -40 15 0
1 -22 -23 0
1 -28 -30 0
1 -48 -35 0
1 -50 -34 0
1 48 -35 0
1 8 34 0
1 -19 4 0
1 -18 -43 0
1 -16 -4 0
1 33 -20 0
1 4 9 0
1 -43 -45 0
1 30 -17 0
1 -50 29 0
1 -32 -44 0
1 -36 3 0
1 -7 -18 0
1 38 -13 0
1 -21 38 0
1 33 45 0
1 -12 19 0
1 -47 -46 0
1 -39 6 0
1 -9 16 0
1 33 19 0
1 31 23 0
1 11 -6 0
1 1 17 0
1 35 -3 0
1 48 -3 0
1 8 36 0
1 -1 -36 0
1 5 -34 0
1 -7 15 0
1 21 1 0
1 -17 14 0
1 -16 5 0
1 -7 41 0
1 -26 -9 0
1 45 -12 0
1 -46 13 0
1 27 -21 0
1 21 -29 0
1 -43 49 0
1 4 20 0
1 10 -21 0
1 30 6 0
1 17 20 0
1 33 6 0
1 26 -33 0
1 -12 22 0
1 21 23 0
1 -43 35 0
1 -5 -8 0
1 13 -49 0
1 -18 -30 0
1 35 5 0
1 38 -14 0
1 36 42 0
1 -14 17 0
1 1 13 0
1 -21 -46 0
1 44 47 0
1 27 4 0
1 8 -20 0
1 -34 29 0
1 -21 -48 0
1 -14 5 0
1 18 -48 0
1 44 -10 0
1 -7 -35 0
1 -38 -11 0
1 -31 16 0
1 -45 35 0
1 -33 -9 0
1 14 -39 0
1 37 -31 0
1 41 -42 0
1 -26 16 0
1 26 24 0
1 40 -49 0
1 -34 3 0
1 11 48 0
1 37 23 0
1 4 -25 0
1 -16 -21 0
1 37 21 0
1 45 -14 0
1 13 -38 0
1 40 18 0
1 16 23 0
1 -46 -30 0
1 -4 29 0
1 49 -34 0
1 -4 -17 0
1 -30 -15 0
1 -3 -2 0
1 -19 -48 0
1 -21 17 0
1 46 -11 0
1 40 -7 0
1 40 -31 0
1 -47 -21 0
1 36 -25 0
1 -26 -5 0
1 -3 22 0
1 -38 -14 0
1 -25 2 0
1 8 -2 0
1 -33 -27 0
1 47 -33 0
1 7 -23 0
1 -27 -50 0
1 21 5 0
1 -19 -40 0
1 42 -25 0
1 -27 11 0
1 -37 38 0
1 -43 16 0
1 -36 -8 0
1 35 -21 0
1 22 15 0
1 7 -2 0
1 10 2 0
1 48 -17 0
1 4 -40 0
1 6 -27 0
1 -35 3 0
1 23 -32 0
1 46 16 0
1 -17 -9 0
1 -10 40 0
1 -6 2 0
1 42 -41 0
1 -18 17 0
1 20 -15 0
1 -46 -27 0
1 43 9 0
1 35 -10 0
1 -16 21 0
1 -30 -24 0
1 21 13 0
1 15 -22 0
1 14 -18 0
1 -9 3 0
1 -12 -42 0
1 -2 40 0
1 10 -8 0
1 -32 17 0
1 30 -29 0
1 -1 33 0
1 1 38 0
1 41 6 0
1 -48 -35 0
1 -25 -16 0
1 37 24 0
1 -49 -15 0
1 -25 26 0
1 3 -42 0
1 -6 16 0
1 26 34 0
1 -32 8 0
1 -23 18 0
1 42 -2 0
1 17 -44 0
1 -20 45 0
1 36 -6 0
1 21 -45 0
1 29 11 0
1 18 -41 0
1 -9 -5 0
1 -6 11 0
1 4 7 0
1 -1 -12 0
1 -17 -9 0
1 -4 -29 0
1 -40 41 0
1 -31 -8 0
1 -12 46 0
1 -6 27 0
1 -33 -4 0
1 15 -28 0
1 37 -47 0
1 26 4 0
1 44 13 0
1 21 -18 0
1 -13 1 0
1 -28 40 0
1 -43 10 0
1 -38 14 0
1 11 -10 0
1 13 36 0
1 -48 23 0
1 -40 43 0
1 43 50 0
1 -39 -49 0
1 -9 -24 0
1 37 -30 0
1 -39 35 0
1 20 33 0
1 -5 -38 0
1 -30 35 0
1 -34 20 0
1 18 -23 0
1 46 -45 0
1 -24 43 0
1 28 -10 0
1 43 -21 0
1 -8 -48 0
1 33 41 0
1 -10 -3 0
1 25 42 0
1 36 26 0
1 19 -29 0
1 -39 -35 0
1 -5 6 0
1 4 -22 0
1 12 11 0
1 -13 -39 0
1 31 2 0
1 -27 -8 0
1 -37 -48 0
1 32 -33 0
1 -38 -36 0
1 -8 50 0
1 -10 27 0
1 15 -38 0
1 39 16 0
1 24 37 0
1 -34 1 0
1 33 43 0
1 29 -2 0
1 1 37 0
1 -13 -44 0
1 31 41 0
1 -6 -32 0
1 -18 44 0
1 44 -25 0
1 -17 -19 0
1 -20 8 0
1 -44 34 0
1 -28 12 0
1 -2 4 0
1 -35 11 0
1 5 -27 0
1 1 20 0
1 39 22 0
1 -30 42 0
1 -26 7 0
1 19 12 0
1 -16 38 0
1 49 15 0
1 42 -7 0
1 27 26 0
1 48 -21 0
1 13 -50 0
1 -6 30 0
1 -42 3 0
1 40 -22 0
1 -37 -10 0
1 17 -43 0
1 19 29 0
1 -49 31 0
1 -30 -44 0
1 23 41 0
1 43 -3 0
1 25 28 0
1 -38 13 0
1 -5 8 0
1 -36 -6 0
1 -36 32 0
1 25 -45 0
1 36 -9 0
1 12 -33 0
1 -11 -32 0
1 44 -35 0
1 42 -1 0
1 7 -9 0
1 41 7 0
1 2 -8 0
1 17 -25 0
1 7 26 0
1 7 9 0
1 -43 -20 0
1 20 -19 0
1 28 24 0
1 -30 -26 0
1 34 -45 0
1 -19 -34 0
1 -9 41 0
1 50 -10 0
1 -29 -14 0
1 33 39 0
1 -12 -44 0
1 20 10 0
1 5 42 0
1 -25 -31 0
1 -21 42 0
1 2 -14 0
1 -27 39 0
1 27 -3 0
1 -46 47 0
1 7 2 0
1 -44 21 0
1 1 33 0
1 -25 -49 0
1 12 -3 0
1 -42 34 0
1 36 -18 0
1 -15 36 0
1 -38 -15 0
1 -35 -17 0
1 50 49 0
1 -48 47 0
1 -50 -5 0
1 38 47 0
1 14 -16 0
1 -2 49 0
1 31 -20 0
1 -19 36 0
1 42 -21 0
1 -21 -25 0
1 23 29 0
1 -38 37 0
1 42 -10 0
1 9 -44 0
1 -14 -10 0
1 -46 -34 0
1 5 15 0
1 39 12 0
1 -40 -14 0
1 -1 -11 0
1 -21 -36 0
1 30 -46 0
1 -6 5 0
1 -38 -25 0
1 39 -12 0
1 -24 18 0
1 -31 -17 0
1 27 -21 0
1 -6 -10 0
1 -6 44 0
1 48 -3 0
1 -28 49 0
1 -11 -45 0
1 -12 -32 0
1 48 37 0
1 8 48 0
1 -8 48 0
1 41 -27 0
1 30 35 0
1 34 -2 0
1 -46 17 0
1 -48 -23 0
1 10 22 0
1 -19 -41 0
1 -38 -28 0
1 4 -13 0
1 -48 -41 0
1 42 -13 0
1 -29 -1 0
1 24 -41 0
1 -13 -40 0
1 30 29 0
1 -7 47 0
1 -9 12 0
1 -2 -33 0
1 -45 11 0
1 -12 -23 0
1 14 -19 0
1 9 -16 0
1 45 14 0
1 11 50 0
1 11 4 0
1 36 -11 0
1 22 -36 0
1 8 2 0
1 -21 -34 0
1 49 -4 0
1 -18 -21 0
1 -20 -4 0
1 -8 -20 0
1 31 50 0
1 -35 -27 0
1 28 -50 0
1 -34 -11 0
1 -14 -44 0
1 15 -19 0
1 23 -3 0
1 23 8 0
1 7 -46 0
1 -22 -39 0
1 -39 48 0
1 8 26 0
1 19 -29 0
1 48 9 0
1 -12 -31 0
1 -39 -22 0
1 -17 -43 0
1 -31 20 0
1 -17 35 0
1 -10 -44 0
1 22 47 0
1 -6 28 0
1 9 -38 0
1 -10 -40 0
1 32 28 0
1 -47 1 0
1 -35 -21 0
1 14 -34 0
1 31 -34 0
1 12 43 0
1 31 -5 0
1 44 -9 0
1 -36 -30 0
1 -30 18 0
1 39 34 0
1 -18 -31 0
1 -15 -41 0
1 -34 37 0
1 42 -14 0
1 23 19 0
1 -48 41 0
1 36 41 0
1 -49 -5 0
1 -42 -36 0
1 20 19 0
1 -16 -29 0
1 32 33 0
1 -43 -9 0
1 49 -25 0
1 16 8 0
1 -12 42 0
1 -28 -36 0
1 5 50 0
1 -29 2 0
1 34 -49 0
1 8 9 0
1 -33 -21 0
1 29 -46 0
1 -38 5 0
1 41 -28 0
1 28 16 0
1 17 12 0
1 -11 26 0
1 34 44 0
1 15 -16 0
1 -11 -27 0
1 32 26 0
1 4 -25 0
1 -40 31 0
1 42 2 0
1 28 34 0
1 -28 -45 0
1 -10 43 0
1 20 17 0
1 42 -31 0
1 -5 -39 0
1 19 13 0
1 15 -8 0
1 42 33 0
1 28 -32 0
1 24 -45 0
1 -11 25 0
1 -5 16 0
1 5 24 0
1 -36 5 0
1 -13 46 0
1 29 45 0
1 -27 -34 0
1 -29 -49 0
1 -23 -36 0
1 -2 41 0
1 -14 -41 0
1 -45 11 0
1 7 -42 0
1 -37 36 0
1 20 -33 0
1 -32 5 0
1 -41 -29 0
1 -19 -18 0
1 -8 27 0
1 38 -33 0
1 -25 22 0
1 8 -19 0
1 2 -36 0
1 -41 -11 0
1 40 19 0
1 -36 -22 0
1 -48 -24 0
1 -7 -6 0
1 -28 -7 0
1 26 -15 0
1 1 -35 0
1 46 -47 0
1 -16 46 0
1 -17 34 0
1 -8 41 0
1 -46 27 0
1 34 37 0
1 -2 19 0
1 -4 -45 0
1 -42 15 0
1 11 -26 0
1 -10 4 0
1 -44 -41 0
1 18 26 0
1 12 21 0
1 40 -45 0
1 -40 -7 0
1 -22 -25 0
1 50 47 0
1 -50 -1 0
1 -41 6 0
1 32 -46 0
1 17 18 0
1 -12 20 0
1 -27 -40 0
1 -14 21 0
1 17 39 0
1 40 -48 0
1 -4 -44 0
1 -39 47 0
1 15 -33 0
1 -3 -10 0
1 -50 9 0
1 -30 -9 0
1 48 -50 0
1 47 -24 0
1 -17 4 0
1 1 12 0
1 -44 -22 0
1 -32 -18 0
1 -27 4 0
1 12 22 0
1 -21 15 0
1 39 12 0
1 15 1 0
1 -12 22 0
1 43 21 0
1 38 29 0
1 32 -1 0
1 -23 -3 0
1 -48 11 0
1 28 -30 0
1 -41 40 0
1 19 -46 0
1 -48 -29 0
1 35 -42 0
1 12 -2 0
1 5 1 0
1 12 -47 0
1 27 35 0
1 -24 -8 0
1 -3 32 0
1 -11 -9 0
1 -1 35 0
1 -37 -47 0
1 -18 43 0
1 -4 -38 0
1 5 6 0
1 34 5 0
1 -37 -16 0
1 -43 -20 0
1 50 -9 0
1 5 4 0
1 -47 -23 0
1 -10 26 0
1 -32 1 0
1 -6 -42 0
1 -8 -5 0
1 -25 33 0
1 41 -40 0
1 44 -34 0
1 -6 4 0
1 -30 29 0
1 -29 -7 0
1 -49 6 0
1 11 -13 0
1 46 -33 0
1 -23 19 0
1 2 50 0
1 3 -46 0
1 -24 3 0
1 -10 19 0
1 24 -13 0
1 26 20 0
1 3 -29 0
1 -48 -38 0
1 37 -48 0
1 43 29 0
1 31 -14 0
1 -33 7 0
1 -19 -12 0
1 32 -11 0
1 40 -21 0
1 -8 -1 0
1 -48 -43 0
1 22 6 0
1 -19 27 0
1 33 40 0
1 -2 -48 0
1 8 -9 0
1 -29 -26 0
1 -27 20 0
1 13 -15 0
1 -20 -21 0
1 -47 -28 0
1 -18 48 0
1 45 25 0
1 -33 18 0
1 -44 34 0
1 -3 28 0
1 -43 7 0
1 28 34 0
1 12 -42 0
1 -39 -34 0
1 -8 -48 0
1 15 37 0
1 -20 48 0
1 -26 21 0
1 -28 36 0
1 -20 -32 0
1 24 33 0
1 -16 6 0
1 3 32 0
1 -19 -15 0
1 13 -3 0
1 24 48 0
1 34 37 0
1 -19 -34 0
1 16 -43 0
1 48 49 0
1 31 -20 0
1 -35 -44 0
1 -46 47 0
1 44 -42 0
1 -29 -25 0
1 -8 14 0
1 6 43 0
1 42 11 0
1 30 23 0
1 16 8 0
1 -4 -46 0
1 38 50 0
1 24 -4 0
1 17 2 0
1 -44 -10 0
1 21 -31 0
1 4 28 0
1 -35 -24 0
1 -20 10 0
1 -9 22 0
1 -35 -14 0
1 -19 -2 0
1 -29 14 0
1 21 -49 0
1 -12 -32 0
1 11 21 0
1 -5 11 0
1 -33 13 0
1 26 -6 0
1 8 -32 0
1 -46 22 0
1 20 -8 0
1 39 -47 0
1 17 21 0
1 -31 1 0
1 -13 -12 0
1 -17 32 0
1 14 5 0
1 -26 -4 0
1 -12 -40 0
1 -36 43 0
1 13 -21 0
1 21 -9 0
1 20 -35 0
1 16 -3 0
1 -7 -18 0
1 -22 -14 0
1 -4 -33 0
1 33 42 0
1 16 2 0
1 -7 -6 0
1 26 -30 0
1 -40 36 0
1 -25 -16 0
1 -44 -12 0
1 -45 -31 0
1 -22 -2 0
1 3 11 0
1 -5 -49 0
1 6 -11 0
1 45 31 0
1 9 4 0
1 45 -50 0
1 -43 -42 0
1 -21 34 0
1 -45 -5 0
1 -4 13 0
1 -24 7 0
1 -37 -16 0
1 20 31 0
1 -31 30 0
1 21 -37 0
1 20 12 0
1 17 45 0
1 -7 -46 0
1 -2 -28 0
1 -43 25 0
1 -5 -49 0
1 29 -16 0
1 -2 25 0
1 -37 5 0
1 49 -22 0
1 -49 -36 0
1 33 34 0
1 18 32 0
1 -8 47 0
1 5 -45 0
1 36 -47 0
1 -32 -17 0
1 38 -45 0
1 31 20 0
1 4 33 0
1 -14 32 0
1 -29 -31 0
1 26 20 0
1 16 -26 0
1 -43 -40 0
1 34 2 0
1 -22 30 0
1 -12 -48 0
1 -30 32 0
1 -12 -42 0
1 -11 -3 0
1 29 48 0
1 37 2 0
1 -3 19 0
1 -48 13 0
1 -11 -44 0
1 -25 -33 0
1 24 -40 0
1 43 21 0
1 -18 34 0
1 36 -44 0
1 12 10 0
1 23 -11 0
1 -4 -23 0
1 21 14 0
1 37 43 0
1 3 -24 0
1 16 29 0
1 4 11 0
1 -23 -29 0
1 -47 19 0
1 -41 15 0
1 29 46 0
1 39 -24 0
1 -48 47 0
1 25 -50 0
1 -10 -41 0
1 19 27 0
1 45 -2 0
1 -16 -3 0
1 48 -18 0
1 -42 -31 0
1 27 5 0
1 -5 23 0
1 -13 -20 0
1 -47 -10 0
1 -12 -13 0
1 16 23 0
1 -41 -29 0
1 9 -27 0
1 -31 -23 0
1 -45 16 0
1 -36 -44 0
1 4 35 0
1 -47 49 0
1 -21 12 0
1 -41 -26 0
1 -2 -14 0
1 36 -21 0
1 -37 17 0
1 11 24 0
1 -8 26 0
1 24 -21 0
1 33 43 0
1 19 48 0
1 11 -8 0
1 -29 20 0
1 -36 -13 0
1 37 -39 0
1 -15 -40 0
1 -10 -16 0
1 9 -38 0
1 -36 -39 0
1 -46 49 0
1 19 -39 0
1 25 50 0
1 -10 -12 0
1 10 -16 0
1 -48 -1 0
1 17 12 0
1 -8 16 0
1 9 -24 0
1 13 -28 0
1 -28 -26 0
1 -37 -27 0
1 42 -46 0
1 47 7 0
1 18 -44 0
1 -10 17 0
1 -41 5 0
1 -33 4 0
1 -29 39 0
1 15 35 0
1 -30 -35 0
1 -42 19 0
1 -13 6 0
1 -23 16 0
1 21 36 0
1 40 6 0
1 -44 12 0
1 47 -46 0
1 30 10 0
1 -29 -41 0
1 47 15 0
1 -31 4 0
1 40 -48 0
1 -3 -18 0
1 30 -31 0
1 26 19 0
1 -28 6 0
1 -47 -7 0
1 22 10 0
1 14 43 0
1 -40 -6 0
1 -24 29 0
1 -9 -41 0
1 -10 -33 0
1 -38 -17 0
1 -23 -40 0
1 -50 38 0
1 30 47 0
1 3 -47 0
1 -25 -47 0
1 38 -8 0
1 -40 -7 0
1 23 -27 0
1 -16 37 0
1 -24 34 0
1 %
1 0
1 
